c read Graph
c width = 34
c time = 58 ms
c width = 3
c time = 74 ms
c width = 3
c time = 5117 ms
s td 51 4 54
b 1 1 2 19
b 2 2 3 19 20
b 3 16 17 35 36
b 4 3 19 20 38
b 5 3 20 21 38
b 6 16 35 36 53
b 7 3 21 38 39
b 8 3 21 39 40
b 9 16 35 52 53
b 10 3 4 21 40
b 11 4 21 22 40
b 12 4 22 23 40
b 13 16 34 35 52
b 14 4 23 40 41
b 15 4 23 41 42
b 16 16 34 51 52
b 17 4 5 23 42
b 18 5 23 24 42
b 19 5 6 24 42
b 20 16 33 34 51
b 21 15 16 33 51
b 22 6 7 24 42
b 23 7 24 25 42
b 24 7 25 42 43
b 25 7 8 25 43
b 26 8 25 26 43
b 27 8 26 43 44
b 28 8 9 26 44
b 29 9 26 27 44
b 30 9 27 44 45
b 31 9 10 27 45
b 32 10 27 28 45
b 33 10 28 45 46
b 34 10 11 28 46
b 35 11 28 29 46
b 36 11 29 46 47
b 37 11 12 29 47
b 38 12 29 30 47
b 39 12 30 47 48
b 40 12 13 30 48
b 41 13 30 31 48
b 42 13 31 48 49
b 43 13 14 31 49
b 44 14 31 32 49
b 45 14 32 49 50
b 46 14 15 32 50
b 47 15 32 33 50
b 48 15 33 50 51
b 49 36 53 54
b 50 19 37 38
b 51 17 18 36
1 2
2 4
3 51
3 6
4 50
4 5
5 7
6 49
6 9
7 8
8 10
9 13
10 11
11 12
12 14
13 16
14 15
15 17
16 20
17 18
18 19
19 22
20 21
21 48
22 23
23 24
24 25
25 26
26 27
27 28
28 29
29 30
30 31
31 32
32 33
33 34
34 35
35 36
36 37
37 38
38 39
39 40
40 41
41 42
42 43
43 44
44 45
45 46
46 47
47 48
